(set-info :min-time 0.182446753)
; Start decls (8)
(declare-fun b10 () (_ FloatingPoint 11 53))
(declare-fun b12 () (_ FloatingPoint 11 53))
(declare-fun b16 () (_ FloatingPoint 11 53))
(declare-fun b22 () (_ FloatingPoint 11 53))
(declare-fun b24 () (_ FloatingPoint 11 53))
(declare-fun b27 () (_ FloatingPoint 11 53))
(declare-fun b31 () (_ FloatingPoint 11 53))
(declare-fun b34 () (_ FloatingPoint 11 53))
; End decls
; Start constraints (6)
(assert (fp.lt b12 (fp.add roundNearestTiesToEven b10 b16)))
(assert (fp.leq b10 b12))
(assert (fp.leq b10 b24))
(assert (fp.leq b27 b10))
(assert (fp.leq b22 b31))
(assert (fp.leq b34 b22))
; End constraints
(check-sat)
